Maximize
  0.00632873750138215 Z_426_2_0 + 0.0089849698471392 Z_426_2_1
   + 0.8242166343633676 Z_426_2_2 + 0.0237774136004449 Z_426_2_3
   + 0.01175478708503 Z_426_0_0 + 0.0251404775890729 Z_426_0_1
   + 0.0789758116113533 Z_426_0_2 + 0.0529333979479194 Z_426_0_3
   + 0.7438717338014447 Z_426_1_0 + 0.0374290086095741 Z_426_1_1
   + 0.00575999693636532 Z_426_1_2 + 0.2201439908633009 Z_426_1_3
   + 0.3411574549000193 Z_426_4_0 + 0.0255966525505043 Z_426_4_1
   + 0.00806978478276817 Z_426_4_2 + 0.5875090351728438 Z_426_4_3
   + 0.091517122865809 Z_426_5_0 + 0.1845733547461035 Z_426_5_1
   + 0.00611351434935659 Z_426_5_2 + 0.0980460463939369 Z_426_5_3
   + 0.01175478708503 Z_426_3_0 + 0.0251404775890729 Z_426_3_1
   + 0.0789758116113533 Z_426_3_2 + 0.0529333979479194 Z_426_3_3
   + 0.0100263026937611 Z_585_0_0 + 0.00572645749097465 Z_585_0_1
   + 0.7278783393218871 Z_585_0_2 + 0.0244806421874715 Z_585_0_3 + [
   0.00291759293819535 Z_426_0_0 * Z_585_0_0
   + 0.00291759293819535 Z_426_0_1 * Z_585_0_1
   + 0.00291759293819535 Z_426_0_2 * Z_585_0_2
   + 0.00291759293819535 Z_426_0_3 * Z_585_0_3
   + 0.0155759870200108 Z_426_1_0 * Z_585_0_0
   + 0.0155759870200108 Z_426_1_1 * Z_585_0_1
   + 0.0155759870200108 Z_426_1_2 * Z_585_0_2
   + 0.0155759870200108 Z_426_1_3 * Z_585_0_3
   + 0.00493827160493827 Z_426_4_0 * Z_585_0_0
   + 0.00493827160493827 Z_426_4_1 * Z_585_0_1
   + 0.00493827160493827 Z_426_4_2 * Z_585_0_2
   + 0.00493827160493827 Z_426_4_3 * Z_585_0_3
   + 0.0398891966759003 Z_426_5_0 * Z_585_0_0
   + 0.0398891966759003 Z_426_5_1 * Z_585_0_1
   + 0.0398891966759003 Z_426_5_2 * Z_585_0_2
   + 0.0398891966759003 Z_426_5_3 * Z_585_0_3
   + 0.0398891966759003 Z_426_3_0 * Z_585_0_0
   + 0.0398891966759003 Z_426_3_1 * Z_585_0_1
   + 0.0398891966759003 Z_426_3_2 * Z_585_0_2
   + 0.0398891966759003 Z_426_3_3 * Z_585_0_3 ] / 2 
Subject To
 constraint1_4262: Z_426_2_0 + Z_426_2_1 + Z_426_2_2 + Z_426_2_3 <= 1
 constraint1_4260: Z_426_0_0 + Z_426_0_1 + Z_426_0_2 + Z_426_0_3 <= 1
 constraint1_4261: Z_426_1_0 + Z_426_1_1 + Z_426_1_2 + Z_426_1_3 <= 1
 constraint1_4264: Z_426_4_0 + Z_426_4_1 + Z_426_4_2 + Z_426_4_3 <= 1
 constraint1_4265: Z_426_5_0 + Z_426_5_1 + Z_426_5_2 + Z_426_5_3 <= 1
 constraint1_4263: Z_426_3_0 + Z_426_3_1 + Z_426_3_2 + Z_426_3_3 <= 1
 constraint1_5850: Z_585_0_0 + Z_585_0_1 + Z_585_0_2 + Z_585_0_3 <= 1
 constraint2_4260: Z_426_2_0 + Z_426_0_0 + Z_426_1_0 + Z_426_4_0
   + Z_426_5_0 + Z_426_3_0 <= 1
 constraint2_4261: Z_426_2_1 + Z_426_0_1 + Z_426_1_1 + Z_426_4_1
   + Z_426_5_1 + Z_426_3_1 <= 1
 constraint2_4262: Z_426_2_2 + Z_426_0_2 + Z_426_1_2 + Z_426_4_2
   + Z_426_5_2 + Z_426_3_2 <= 1
 constraint2_4263: Z_426_2_3 + Z_426_0_3 + Z_426_1_3 + Z_426_4_3
   + Z_426_5_3 + Z_426_3_3 <= 1
 constraint2_5850: Z_585_0_0 <= 1
 constraint2_5851: Z_585_0_1 <= 1
 constraint2_5852: Z_585_0_2 <= 1
 constraint2_5853: Z_585_0_3 <= 1
Bounds
Binaries
 Z_426_2_0 Z_426_2_1 Z_426_2_2 Z_426_2_3 Z_426_0_0 Z_426_0_1 Z_426_0_2
 Z_426_0_3 Z_426_1_0 Z_426_1_1 Z_426_1_2 Z_426_1_3 Z_426_4_0 Z_426_4_1
 Z_426_4_2 Z_426_4_3 Z_426_5_0 Z_426_5_1 Z_426_5_2 Z_426_5_3 Z_426_3_0
 Z_426_3_1 Z_426_3_2 Z_426_3_3 Z_585_0_0 Z_585_0_1 Z_585_0_2 Z_585_0_3
End
